Vanadium(IV) oxide                      
   1.00000000000000     
    11.2056407423997655    0.0010999726847176   -0.0296951428896217
     0.0018185296720856   18.3408997217489826    0.0003093210790099
    -5.6708822458065375   -0.0003907926296012    9.1906712191769930
   V    O 
    64   128
Direct
  0.1179063014270696  0.2451113406870959  0.0131351269315161
  0.1179044319561555  0.2451122283429683  0.5131403926742735
  0.1179123355542799  0.4951094046661524  0.0131361415100315
  0.1179040165252800  0.4951128418045556  0.5131307865261476
  0.1179057498670844  0.7451067409593932  0.0131359915377445
  0.1179052435738015  0.7451063752576133  0.5131488667639772
  0.1179045233486207  0.9951059837610075  0.0131417576196284
  0.1179032673667919  0.9951072616547592  0.5131462986506747
  0.6179118998632944  0.2451131941558415  0.0131415032069668
  0.6179182787422377  0.2451123334888479  0.5131403652282387
  0.6179123366122354  0.4951112717956079  0.0131439844575425
  0.6179174650531820  0.4951101991062430  0.5131446145536387
  0.6179038161660770  0.7451074117218752  0.0131453532768901
  0.6179124559979456  0.7451066232339727  0.5131535374834613
  0.6179131927987100  0.9951049184455414  0.0131449871118079
  0.6179183385568550  0.9951059061330696  0.5131463437907087
  0.3820959492459721  0.0048933249756331  0.4868579461008764
  0.3820976195105814  0.0048876872669226  0.9868652823291058
  0.3820976655621848  0.2548938001219767  0.4868553398828723
  0.3820931813041568  0.2548952793142050  0.9868558578347262
  0.3820960046035395  0.5048928308361695  0.4868627459290522
  0.3820927031633374  0.5048935345909129  0.9868589149544960
  0.3820902890874720  0.7548873544080976  0.4868618015108481
  0.3820859356528530  0.7548885157466501  0.9868606546310517
  0.8820829242714083  0.0048890406879849  0.4868594103498936
  0.8820846895842891  0.0048882613709509  0.9868592159933911
  0.8820856655058762  0.2548932618504054  0.4868562202313385
  0.8820855882025285  0.2548933540232312  0.9868526612200341
  0.8820885883000216  0.5048938079693812  0.4868508297746388
  0.8820903777676037  0.5048935332596969  0.9868462605800445
  0.8820860913662116  0.7548889386173983  0.4868623164147436
  0.8820908875048801  0.7548879467454981  0.9868598156949275
  0.3820815460431533  0.1200740255260015  0.2368474975434722
  0.3820780131845254  0.1200719916697182  0.7368563063717275
  0.3820788860325308  0.3700721260176820  0.2368568966227969
  0.3820762073704671  0.3700761925603118  0.7368525002167488
  0.3820747258636530  0.6200713341934332  0.2368548297796238
  0.3820727279845428  0.6200713999880136  0.7368530464261056
  0.3820874246980850  0.8700658319644958  0.2368603257028639
  0.3820728908993374  0.8700643800538259  0.7368525984851146
  0.8820705205239108  0.1200750888499087  0.2368508762053381
  0.8820732694871865  0.1200752791941539  0.7368479447991447
  0.8820692664869512  0.3700752004987322  0.2368547825006431
  0.8820794562622822  0.3700755290421327  0.7368464649039268
  0.8820701069704882  0.6200739999109288  0.2368483304870139
  0.8820757458008686  0.6200720144893381  0.7368483523092664
  0.8820713904177850  0.8700683533592439  0.2368500887805709
  0.8820706638436064  0.8700684706291852  0.7368538539394507
  0.1179152660109253  0.1299311726801164  0.2631427631316825
  0.1179219833650791  0.1299278495672098  0.7631498632974072
  0.1179138553280055  0.3799327111252992  0.2631410263447904
  0.1179275817945822  0.3799348478057425  0.7631398578440027
  0.1179240688415319  0.6299271577307124  0.2631439738024071
  0.1179271114626630  0.6299272626798071  0.7631445082116457
  0.1179224185285364  0.8799273946254473  0.2631468975603468
  0.1179231074601290  0.8799264135167988  0.7631511467216399
  0.6179346807372070  0.1299265294299516  0.2631515034699632
  0.6179299983910909  0.1299237554465975  0.7631545767163175
  0.6179254060431063  0.3799300044286227  0.2631498213347001
  0.6179252569857496  0.3799324919627907  0.7631466644712503
  0.6179270706626170  0.6299265543670103  0.2631520129682343
  0.6179241334409227  0.6299286975911400  0.7631484963363775
  0.6179292932342690  0.8799244070541050  0.2631490286293854
  0.6179221733743603  0.8799224968840562  0.7631497858270251
  0.0533355047835471  0.0538803825158709  0.1080969143638200
  0.0533320990206647  0.0538792554955023  0.6080954414659985
  0.0533316566826372  0.3038806441080268  0.1080800310695054
  0.0533295180909548  0.3038813213150817  0.6080814308100528
  0.0533371540489185  0.5538784310286005  0.1080853678805909
  0.0533332773814834  0.5538791678218686  0.6080859213079819
  0.0533394639944547  0.8038786963920543  0.1080950927758337
  0.0533301986361181  0.8038784674161903  0.6080928939982613
  0.5533518502084007  0.0538772419109677  0.1081042339545846
  0.5533526838283791  0.0538770905034909  0.6081000040538171
  0.5533450788523879  0.3038793416141061  0.1080907924874950
  0.5533476987581452  0.3038776120539239  0.6080909343030427
  0.5533431535291129  0.5538804470285967  0.1080896532148188
  0.5533440671259484  0.5538785035353158  0.6080866804777614
  0.5533445557903249  0.8038797217964415  0.1081057540282160
  0.5533414040843567  0.8038773754336148  0.6080996873232749
  0.4466682834378091  0.1961210775040527  0.3919033561004497
  0.4466628511391377  0.1961226194330905  0.8919050466527949
  0.4466658169929261  0.4461198082745810  0.3919056411033708
  0.4466636557746568  0.4461215787425985  0.8919096639858495
  0.4466699675849313  0.6961187619585729  0.3919150649087655
  0.4466617025875195  0.6961221511963913  0.8919156520563547
  0.4466707483956256  0.9461199180019406  0.3919164777801001
  0.4466666493495524  0.9461189877221798  0.8919152021674748
  0.9466498646773474  0.1961209441391389  0.3918977706174545
  0.9466523283642019  0.1961212377747685  0.8918963213112576
  0.9466515548998657  0.4461205011363418  0.3918995255736988
  0.9466612737512179  0.4461209962966137  0.8918999890911010
  0.9466526193540616  0.6961202426821558  0.3919107868878058
  0.9466579767703323  0.6961200834441570  0.8919137369616195
  0.9466507530961223  0.9461222185748852  0.3919099786213636
  0.9466550048583855  0.9461228896867695  0.8919114824615519
  0.4465810560665275  0.1788508736635208  0.1418502224075695
  0.4465757090288918  0.1788493456211455  0.6418527234281513
  0.4465736855903160  0.4288503827750674  0.1418533627314105
  0.4465745700149100  0.4288495626577458  0.6418544761692999
  0.4465684717889786  0.6788476374153944  0.1418469472881583
  0.4465659544340568  0.6788477539112066  0.6418457881446997
  0.4465765662130252  0.9288469484997250  0.1418532017389680
  0.4465690907812387  0.9288484411257372  0.6418491757511617
  0.9465563520025029  0.1788490294391565  0.1418434059615379
  0.9465628585482833  0.1788471211233329  0.6418437981050786
  0.9465574186481760  0.4288511167654931  0.1418469925895636
  0.9465664783971803  0.4288520657528636  0.6418460823191481
  0.9465669331766975  0.6788530502194163  0.1418524247631154
  0.9465689032293767  0.6788527923946077  0.6418503484694043
  0.9465630708002948  0.9288484049837393  0.1418484521363581
  0.9465606309008763  0.9288498647133920  0.6418450038644039
  0.0534223462898709  0.0711497544043027  0.3581498843919420
  0.0534249023323099  0.0711500233000066  0.8581484273708000
  0.0534230006011498  0.3211515825096711  0.3581491695434735
  0.0534349273186479  0.3211513503317533  0.8581463256195008
  0.0534283593376443  0.5711551485451238  0.3581477808351323
  0.0534354970916340  0.5711511131608233  0.8581553413112957
  0.0534252531502091  0.8211489320598346  0.3581471949403792
  0.0534283011586538  0.8211495543308303  0.8581489520100334
  0.5534435624553637  0.0711523363389972  0.3581576144244920
  0.5534371234711983  0.0711511421944095  0.8581590844460649
  0.5534370257663355  0.3211498726960187  0.3581533936901025
  0.5534372477225915  0.3211514742712041  0.8581556550559881
  0.5534340099505499  0.5711474390629547  0.3581485528998414
  0.5534336650594796  0.5711483846770165  0.8581515700181441
  0.5534421343752172  0.8211491164812585  0.3581552167860593
  0.5534339988816654  0.8211497518695836  0.8581531754284697
  0.1995125876115083  0.1744959450832368  0.1520968377279246
  0.1995124286088483  0.1744946723041849  0.6521049340355418
  0.1995132488382296  0.4244945231048050  0.1521058160266406
  0.1995147770400152  0.4244967835579985  0.6521041207353591
  0.1995140932512172  0.6744934129157727  0.1521001896358740
  0.1995115870451230  0.6744921034842974  0.6521027388066400
  0.1995136749052975  0.9244921101014043  0.1520976222762869
  0.1995075992161119  0.9244920248370647  0.6520997441704708
  0.6995139972784301  0.1744919373926308  0.1521025302393966
  0.6995151129682640  0.1744897557651086  0.6521004046967747
  0.6995135874141738  0.4244934981698165  0.1521069409046660
  0.6995202188422169  0.4244910792799885  0.6521056906808198
  0.6995145302147208  0.6744933060531579  0.1521055012147272
  0.6995162442868335  0.6744922968119624  0.6521021193519800
  0.6995159001553901  0.9244899729861800  0.1521062826853949
  0.6995120200264893  0.9244909760347682  0.6521033553543987
  0.3004886503914719  0.0755075860842851  0.3478930509583620
  0.3004891257321702  0.0755049221335824  0.8479019464584070
  0.3004873266742152  0.3255069358217142  0.3479006542300880
  0.3004900869606644  0.3255100553682695  0.8479000999866884
  0.3004861205243756  0.5755073157394079  0.3478947809558903
  0.3004886901094039  0.5755059600880017  0.8478976135321830
  0.3004852852268982  0.8255042365773164  0.3478885737994659
  0.3004833760352383  0.8255039752683757  0.8478955095693692
  0.8004833252736034  0.0755083141679123  0.3478958755109574
  0.8004858316858048  0.0755075784510879  0.8478978720218038
  0.8004835298218893  0.3255077026047601  0.3478983341543085
  0.8004890047649624  0.3255082032462440  0.8478942575993074
  0.8004803677979240  0.5755091010748288  0.3478938217732335
  0.8004851528055497  0.5755069510261421  0.8478958558195870
  0.8004838424966465  0.8255086198129078  0.3478942640083247
  0.8004840768828032  0.8255068293738077  0.8479000442170488
  0.3005334134896458  0.0494738943218564  0.0979421062809323
  0.3005314440250046  0.0494748351038012  0.5979410529590297
  0.3005273073614703  0.2994768205549008  0.0979271779324904
  0.3005288338464638  0.2994766172031973  0.5979332192380369
  0.3005331816334831  0.5494754156571418  0.0979386173347478
  0.3005331490798255  0.5494772738565601  0.5979367986418254
  0.3005335511632055  0.7994744543518308  0.0979455373503484
  0.3005281096239969  0.7994751215322466  0.5979392951837355
  0.8005273282234810  0.0494730397203327  0.0979414782949419
  0.8005287558094381  0.0494724733468388  0.5979372716086573
  0.8005287271011952  0.2994746577791361  0.0979334983508409
  0.8005294379765644  0.2994729671723704  0.5979313965152002
  0.8005310792897120  0.5494777071601220  0.0979401872292840
  0.8005324901350335  0.5494751221148917  0.5979381912739470
  0.8005274612735818  0.7994770062285781  0.0979446821053358
  0.8005293687878776  0.7994756914588237  0.5979428000005740
  0.1994661924521637  0.2005257851928093  0.4020536398881376
  0.1994694125751337  0.2005257735136965  0.9020541545724754
  0.1994643467615376  0.4505249956990056  0.4020513769372371
  0.1994703267634534  0.4505252318627342  0.9020581694523102
  0.1994658114901924  0.7005222953913730  0.4020626526465634
  0.1994680330740053  0.7005224682641824  0.9020654363041629
  0.1994738048870488  0.9505248656548133  0.4020695688466347
  0.1994733690341235  0.9505235229029267  0.9020709750467688
  0.6994729858298356  0.2005259157770496  0.4020602266407991
  0.6994703239341078  0.2005250608120406  0.9020583462740461
  0.6994712605956153  0.4505231396655489  0.4020576904383120
  0.6994722778848086  0.4505242460614909  0.9020608499979872
  0.6994697299293691  0.7005238071813551  0.4020622868415558
  0.6994682313288436  0.7005241936136457  0.9020638133639167
  0.6994721483839044  0.9505265105343241  0.4020683094692785
  0.6994691233633219  0.9505258499139231  0.9020675889098939
 
  0.00000000E+00  0.00000000E+00  0.00000000E+00
  0.00000000E+00  0.00000000E+00  0.00000000E+00
  0.00000000E+00  0.00000000E+00  0.00000000E+00
  0.00000000E+00  0.00000000E+00  0.00000000E+00
  0.00000000E+00  0.00000000E+00  0.00000000E+00
  0.00000000E+00  0.00000000E+00  0.00000000E+00
  0.00000000E+00  0.00000000E+00  0.00000000E+00
  0.00000000E+00  0.00000000E+00  0.00000000E+00
  0.00000000E+00  0.00000000E+00  0.00000000E+00
  0.00000000E+00  0.00000000E+00  0.00000000E+00
  0.00000000E+00  0.00000000E+00  0.00000000E+00
  0.00000000E+00  0.00000000E+00  0.00000000E+00
  0.00000000E+00  0.00000000E+00  0.00000000E+00
  0.00000000E+00  0.00000000E+00  0.00000000E+00
  0.00000000E+00  0.00000000E+00  0.00000000E+00
  0.00000000E+00  0.00000000E+00  0.00000000E+00
  0.00000000E+00  0.00000000E+00  0.00000000E+00
  0.00000000E+00  0.00000000E+00  0.00000000E+00
  0.00000000E+00  0.00000000E+00  0.00000000E+00
  0.00000000E+00  0.00000000E+00  0.00000000E+00
  0.00000000E+00  0.00000000E+00  0.00000000E+00
  0.00000000E+00  0.00000000E+00  0.00000000E+00
  0.00000000E+00  0.00000000E+00  0.00000000E+00
  0.00000000E+00  0.00000000E+00  0.00000000E+00
  0.00000000E+00  0.00000000E+00  0.00000000E+00
  0.00000000E+00  0.00000000E+00  0.00000000E+00
  0.00000000E+00  0.00000000E+00  0.00000000E+00
  0.00000000E+00  0.00000000E+00  0.00000000E+00
  0.00000000E+00  0.00000000E+00  0.00000000E+00
  0.00000000E+00  0.00000000E+00  0.00000000E+00
  0.00000000E+00  0.00000000E+00  0.00000000E+00
  0.00000000E+00  0.00000000E+00  0.00000000E+00
  0.00000000E+00  0.00000000E+00  0.00000000E+00
  0.00000000E+00  0.00000000E+00  0.00000000E+00
  0.00000000E+00  0.00000000E+00  0.00000000E+00
  0.00000000E+00  0.00000000E+00  0.00000000E+00
  0.00000000E+00  0.00000000E+00  0.00000000E+00
  0.00000000E+00  0.00000000E+00  0.00000000E+00
  0.00000000E+00  0.00000000E+00  0.00000000E+00
  0.00000000E+00  0.00000000E+00  0.00000000E+00
  0.00000000E+00  0.00000000E+00  0.00000000E+00
  0.00000000E+00  0.00000000E+00  0.00000000E+00
  0.00000000E+00  0.00000000E+00  0.00000000E+00
  0.00000000E+00  0.00000000E+00  0.00000000E+00
  0.00000000E+00  0.00000000E+00  0.00000000E+00
  0.00000000E+00  0.00000000E+00  0.00000000E+00
  0.00000000E+00  0.00000000E+00  0.00000000E+00
  0.00000000E+00  0.00000000E+00  0.00000000E+00
  0.00000000E+00  0.00000000E+00  0.00000000E+00
  0.00000000E+00  0.00000000E+00  0.00000000E+00
  0.00000000E+00  0.00000000E+00  0.00000000E+00
  0.00000000E+00  0.00000000E+00  0.00000000E+00
  0.00000000E+00  0.00000000E+00  0.00000000E+00
  0.00000000E+00  0.00000000E+00  0.00000000E+00
  0.00000000E+00  0.00000000E+00  0.00000000E+00
  0.00000000E+00  0.00000000E+00  0.00000000E+00
  0.00000000E+00  0.00000000E+00  0.00000000E+00
  0.00000000E+00  0.00000000E+00  0.00000000E+00
  0.00000000E+00  0.00000000E+00  0.00000000E+00
  0.00000000E+00  0.00000000E+00  0.00000000E+00
  0.00000000E+00  0.00000000E+00  0.00000000E+00
  0.00000000E+00  0.00000000E+00  0.00000000E+00
  0.00000000E+00  0.00000000E+00  0.00000000E+00
  0.00000000E+00  0.00000000E+00  0.00000000E+00
  0.00000000E+00  0.00000000E+00  0.00000000E+00
  0.00000000E+00  0.00000000E+00  0.00000000E+00
  0.00000000E+00  0.00000000E+00  0.00000000E+00
  0.00000000E+00  0.00000000E+00  0.00000000E+00
  0.00000000E+00  0.00000000E+00  0.00000000E+00
  0.00000000E+00  0.00000000E+00  0.00000000E+00
  0.00000000E+00  0.00000000E+00  0.00000000E+00
  0.00000000E+00  0.00000000E+00  0.00000000E+00
  0.00000000E+00  0.00000000E+00  0.00000000E+00
  0.00000000E+00  0.00000000E+00  0.00000000E+00
  0.00000000E+00  0.00000000E+00  0.00000000E+00
  0.00000000E+00  0.00000000E+00  0.00000000E+00
  0.00000000E+00  0.00000000E+00  0.00000000E+00
  0.00000000E+00  0.00000000E+00  0.00000000E+00
  0.00000000E+00  0.00000000E+00  0.00000000E+00
  0.00000000E+00  0.00000000E+00  0.00000000E+00
  0.00000000E+00  0.00000000E+00  0.00000000E+00
  0.00000000E+00  0.00000000E+00  0.00000000E+00
  0.00000000E+00  0.00000000E+00  0.00000000E+00
  0.00000000E+00  0.00000000E+00  0.00000000E+00
  0.00000000E+00  0.00000000E+00  0.00000000E+00
  0.00000000E+00  0.00000000E+00  0.00000000E+00
  0.00000000E+00  0.00000000E+00  0.00000000E+00
  0.00000000E+00  0.00000000E+00  0.00000000E+00
  0.00000000E+00  0.00000000E+00  0.00000000E+00
  0.00000000E+00  0.00000000E+00  0.00000000E+00
  0.00000000E+00  0.00000000E+00  0.00000000E+00
  0.00000000E+00  0.00000000E+00  0.00000000E+00
  0.00000000E+00  0.00000000E+00  0.00000000E+00
  0.00000000E+00  0.00000000E+00  0.00000000E+00
  0.00000000E+00  0.00000000E+00  0.00000000E+00
  0.00000000E+00  0.00000000E+00  0.00000000E+00
  0.00000000E+00  0.00000000E+00  0.00000000E+00
  0.00000000E+00  0.00000000E+00  0.00000000E+00
  0.00000000E+00  0.00000000E+00  0.00000000E+00
  0.00000000E+00  0.00000000E+00  0.00000000E+00
  0.00000000E+00  0.00000000E+00  0.00000000E+00
  0.00000000E+00  0.00000000E+00  0.00000000E+00
  0.00000000E+00  0.00000000E+00  0.00000000E+00
  0.00000000E+00  0.00000000E+00  0.00000000E+00
  0.00000000E+00  0.00000000E+00  0.00000000E+00
  0.00000000E+00  0.00000000E+00  0.00000000E+00
  0.00000000E+00  0.00000000E+00  0.00000000E+00
  0.00000000E+00  0.00000000E+00  0.00000000E+00
  0.00000000E+00  0.00000000E+00  0.00000000E+00
  0.00000000E+00  0.00000000E+00  0.00000000E+00
  0.00000000E+00  0.00000000E+00  0.00000000E+00
  0.00000000E+00  0.00000000E+00  0.00000000E+00
  0.00000000E+00  0.00000000E+00  0.00000000E+00
  0.00000000E+00  0.00000000E+00  0.00000000E+00
  0.00000000E+00  0.00000000E+00  0.00000000E+00
  0.00000000E+00  0.00000000E+00  0.00000000E+00
  0.00000000E+00  0.00000000E+00  0.00000000E+00
  0.00000000E+00  0.00000000E+00  0.00000000E+00
  0.00000000E+00  0.00000000E+00  0.00000000E+00
  0.00000000E+00  0.00000000E+00  0.00000000E+00
  0.00000000E+00  0.00000000E+00  0.00000000E+00
  0.00000000E+00  0.00000000E+00  0.00000000E+00
  0.00000000E+00  0.00000000E+00  0.00000000E+00
  0.00000000E+00  0.00000000E+00  0.00000000E+00
  0.00000000E+00  0.00000000E+00  0.00000000E+00
  0.00000000E+00  0.00000000E+00  0.00000000E+00
  0.00000000E+00  0.00000000E+00  0.00000000E+00
  0.00000000E+00  0.00000000E+00  0.00000000E+00
  0.00000000E+00  0.00000000E+00  0.00000000E+00
  0.00000000E+00  0.00000000E+00  0.00000000E+00
  0.00000000E+00  0.00000000E+00  0.00000000E+00
  0.00000000E+00  0.00000000E+00  0.00000000E+00
  0.00000000E+00  0.00000000E+00  0.00000000E+00
  0.00000000E+00  0.00000000E+00  0.00000000E+00
  0.00000000E+00  0.00000000E+00  0.00000000E+00
  0.00000000E+00  0.00000000E+00  0.00000000E+00
  0.00000000E+00  0.00000000E+00  0.00000000E+00
  0.00000000E+00  0.00000000E+00  0.00000000E+00
  0.00000000E+00  0.00000000E+00  0.00000000E+00
  0.00000000E+00  0.00000000E+00  0.00000000E+00
  0.00000000E+00  0.00000000E+00  0.00000000E+00
  0.00000000E+00  0.00000000E+00  0.00000000E+00
  0.00000000E+00  0.00000000E+00  0.00000000E+00
  0.00000000E+00  0.00000000E+00  0.00000000E+00
  0.00000000E+00  0.00000000E+00  0.00000000E+00
  0.00000000E+00  0.00000000E+00  0.00000000E+00
  0.00000000E+00  0.00000000E+00  0.00000000E+00
  0.00000000E+00  0.00000000E+00  0.00000000E+00
  0.00000000E+00  0.00000000E+00  0.00000000E+00
  0.00000000E+00  0.00000000E+00  0.00000000E+00
  0.00000000E+00  0.00000000E+00  0.00000000E+00
  0.00000000E+00  0.00000000E+00  0.00000000E+00
  0.00000000E+00  0.00000000E+00  0.00000000E+00
  0.00000000E+00  0.00000000E+00  0.00000000E+00
  0.00000000E+00  0.00000000E+00  0.00000000E+00
  0.00000000E+00  0.00000000E+00  0.00000000E+00
  0.00000000E+00  0.00000000E+00  0.00000000E+00
  0.00000000E+00  0.00000000E+00  0.00000000E+00
  0.00000000E+00  0.00000000E+00  0.00000000E+00
  0.00000000E+00  0.00000000E+00  0.00000000E+00
  0.00000000E+00  0.00000000E+00  0.00000000E+00
  0.00000000E+00  0.00000000E+00  0.00000000E+00
  0.00000000E+00  0.00000000E+00  0.00000000E+00
  0.00000000E+00  0.00000000E+00  0.00000000E+00
  0.00000000E+00  0.00000000E+00  0.00000000E+00
  0.00000000E+00  0.00000000E+00  0.00000000E+00
  0.00000000E+00  0.00000000E+00  0.00000000E+00
  0.00000000E+00  0.00000000E+00  0.00000000E+00
  0.00000000E+00  0.00000000E+00  0.00000000E+00
  0.00000000E+00  0.00000000E+00  0.00000000E+00
  0.00000000E+00  0.00000000E+00  0.00000000E+00
  0.00000000E+00  0.00000000E+00  0.00000000E+00
  0.00000000E+00  0.00000000E+00  0.00000000E+00
  0.00000000E+00  0.00000000E+00  0.00000000E+00
  0.00000000E+00  0.00000000E+00  0.00000000E+00
  0.00000000E+00  0.00000000E+00  0.00000000E+00
  0.00000000E+00  0.00000000E+00  0.00000000E+00
  0.00000000E+00  0.00000000E+00  0.00000000E+00
  0.00000000E+00  0.00000000E+00  0.00000000E+00
  0.00000000E+00  0.00000000E+00  0.00000000E+00
  0.00000000E+00  0.00000000E+00  0.00000000E+00
  0.00000000E+00  0.00000000E+00  0.00000000E+00
  0.00000000E+00  0.00000000E+00  0.00000000E+00
  0.00000000E+00  0.00000000E+00  0.00000000E+00
  0.00000000E+00  0.00000000E+00  0.00000000E+00
  0.00000000E+00  0.00000000E+00  0.00000000E+00
  0.00000000E+00  0.00000000E+00  0.00000000E+00
  0.00000000E+00  0.00000000E+00  0.00000000E+00
  0.00000000E+00  0.00000000E+00  0.00000000E+00
  0.00000000E+00  0.00000000E+00  0.00000000E+00
  0.00000000E+00  0.00000000E+00  0.00000000E+00
  0.00000000E+00  0.00000000E+00  0.00000000E+00
