Mo doped Vanadium(IV) oxide             
   1.00000000000000     
    11.2046351169139946    0.0007206646592203   -0.0285760494505075
     0.0012217559502694   18.3408916966546087    0.0031025249265996
    -5.6694697363234035    0.0011847497460400    9.2096682487108090
   Mo   V    O 
     1    63   128
Direct
  0.6167045397917761  0.4957620174828108  0.5122683304436109
  0.1178961551498006  0.2442264183705731  0.0131886814805355
  0.1179353580433613  0.2448900274059511  0.5130389865234761
  0.1176349405176467  0.4948438206138803  0.0125672303505127
  0.1176246672980668  0.4952334759101049  0.5129555261968193
  0.1180874086295916  0.7462224092580669  0.0130108746321866
  0.1178205776242720  0.7452423506080095  0.5130063316948252
  0.1179286008787912  0.9951270737523785  0.0132330066080755
  0.1179779472245883  0.9951158064008965  0.5132418775976788
  0.6182705758806080  0.2440649974480635  0.0132910320106774
  0.6179538935385196  0.2449945545765644  0.5131633397551241
  0.6177706891631090  0.4952613111824959  0.0128546728737930
  0.6177394105245142  0.7459925951916873  0.0131745721494170
  0.6177544543485212  0.7453979848741454  0.5131659364648229
  0.6178489945405872  0.9950809067030519  0.0131443713145742
  0.6179567576979537  0.9951153320797914  0.5132072427688712
  0.3822644178212613  0.0048766638347360  0.4870906077788675
  0.3821573849020794  0.0049674634391437  0.9868118654621441
  0.3822565286573365  0.2548509429153896  0.4868440336597217
  0.3814937157047709  0.2540135907516756  0.9859922343703289
  0.3785550534069841  0.5047872832169489  0.4870784917681448
  0.3821050333767673  0.5049174109548602  0.9865446807622504
  0.3822198245773265  0.7550416544479077  0.4869169851680510
  0.3821908917849441  0.7554689921400168  0.9868383830194745
  0.8821360949041974  0.0048538522557848  0.4870456027650008
  0.8821933251216336  0.0049197866764743  0.9868400678168570
  0.8822015154142804  0.2547353203556852  0.4867311849089546
  0.8825059849883132  0.2541312808200544  0.9875635931115667
  0.8833422389353274  0.5048599256339372  0.4867926515384440
  0.8821488311357939  0.5049600662865004  0.9869201172603184
  0.8821396965712154  0.7551634587215545  0.4866966659785774
  0.8825404801865560  0.7556965019631932  0.9881017825517233
  0.3822072905507667  0.1198389966611728  0.2369999334082422
  0.3821082454295350  0.1198990041568493  0.7365667966977725
  0.3807119179848684  0.3689019456632252  0.2342585908900077
  0.3814176518470447  0.3698819487775111  0.7365385091036956
  0.3793659574447616  0.6212176781191872  0.2340420003019474
  0.3823478553428075  0.6206518509378398  0.7377817234629234
  0.3823782227195949  0.8704131939032678  0.2372994668729120
  0.3819932858901254  0.8701762882991488  0.7367035152307437
  0.8822667878008517  0.1196750610400628  0.2370860516290136
  0.8819711174170450  0.1199376581874247  0.7366265342600968
  0.8818537422852586  0.3697463432649073  0.2362713317722722
  0.8848800211483834  0.3686618360207916  0.7391973491946189
  0.8824239710950081  0.6200948728165372  0.2370526446231978
  0.8842482918370536  0.6222864300443760  0.7408009499444645
  0.8825924194655030  0.8705162280035097  0.2375156126319879
  0.8819231443279634  0.8702360234828319  0.7366797395731339
  0.1181747192404572  0.1296997467216698  0.2635226893107685
  0.1175378381075518  0.1295391836811177  0.7625780394136683
  0.1173819952047879  0.3793825842535128  0.2622451652031117
  0.1183341862564262  0.3799273180201013  0.7627033047118914
  0.1182113605103083  0.6299416570038403  0.2633387978363331
  0.1184830567629547  0.6304452683891810  0.7638251792523363
  0.1182628043475660  0.8801957493213592  0.2636948482358079
  0.1180427124215058  0.8801913215347312  0.7632059866909913
  0.6180319945107158  0.1297028761371237  0.2635120314480162
  0.6177451401036649  0.1296532411241316  0.7628108196804746
  0.6158722285474809  0.3780151086695582  0.2587788163874265
  0.6177456008025572  0.3784293407883226  0.7657770832329547
  0.6180395072898790  0.6312033386184552  0.2612692062655384
  0.6185448997487342  0.6314402166351769  0.7655246006865326
  0.6179911219961696  0.8801897791795099  0.2634157101252299
  0.6180623065268804  0.8801371357534933  0.7632538448328745
  0.0529798742631868  0.0542760012178647  0.1072880234246938
  0.0529830047449025  0.0543164418164181  0.6071562770535337
  0.0531286248188110  0.3038247874467004  0.1069122348486218
  0.0529839979722340  0.3041250973442331  0.6070041513694875
  0.0534575782690396  0.5540287573342724  0.1073875233653467
  0.0532172036098046  0.5542300840813326  0.6075448577063227
  0.0537284223643653  0.8047098404703164  0.1081933073033454
  0.0528801674207813  0.8043195847306777  0.6072387523024503
  0.5530065512029765  0.0542604743246997  0.1072495006156586
  0.5530950181078467  0.0543191957636324  0.6072665626431402
  0.5526456947933767  0.3036689396574630  0.1068375539077735
  0.5533169288293891  0.3045342848758494  0.6073051885479259
  0.5527988159275523  0.5542678003349835  0.1072161626614445
  0.5536664655412480  0.5562707996252314  0.6102985544420250
  0.5529696968870894  0.8047870157617965  0.1075031256808003
  0.5530620044150965  0.8044915410786473  0.6074091844484713
  0.4471276752629620  0.1956509648003504  0.3928050943906811
  0.4469020844120379  0.1950734697030967  0.8924435230294065
  0.4440497509349015  0.4441998069448942  0.3888243528213238
  0.4469442633779863  0.4458750163907510  0.8923394526133137
  0.4474058904404146  0.6957843080689941  0.3928870578488244
  0.4472537985779326  0.6961823849275888  0.8929904679018321
  0.4471562591755713  0.9456862232415801  0.3930497614341490
  0.4471094258933022  0.9456877166475337  0.8929282634575060
  0.9470377223738780  0.1955957132117021  0.3926839813087355
  0.9469166596522527  0.1953414652038532  0.8925554436817578
  0.9472381954028108  0.4456444641292663  0.3924966391467279
  0.9459525606787835  0.4458135836733064  0.8915742614396578
  0.9470684215174714  0.6957647159756064  0.3928362609347360
  0.9474513669311264  0.6960342119611553  0.8937417240620320
  0.9470945136700308  0.9456967597133996  0.3930283244566581
  0.9471796674698965  0.9457261220566977  0.8929033514145743
  0.4471574995456322  0.1789995171318211  0.1427908412582539
  0.4470553472805605  0.1792700273314480  0.6427151411533529
  0.4464205765890199  0.4290384115958901  0.1419526068725432
  0.4484079494010373  0.4288594879044183  0.6432857055531045
  0.4459701029557124  0.6800929417213979  0.1411022823443346
  0.4470881450032635  0.6797556382092864  0.6432689361533903
  0.4470524699530785  0.9294638253122756  0.1429503895363311
  0.4471215240163886  0.9294611885227866  0.6429776046830398
  0.9471279866336246  0.1790357621411260  0.1430569542564228
  0.9469151397935889  0.1793328870758018  0.6427763713164083
  0.9467180618910191  0.4290557186823065  0.1422422069648874
  0.9467005647977444  0.4289728132987278  0.6429137574894881
  0.9475847391582377  0.6793170011806566  0.1431537052574328
  0.9467909833663413  0.6791518556302520  0.6422484108111419
  0.9472708202963886  0.9294255867125045  0.1430126532284604
  0.9469797181461175  0.9294261151459935  0.6427547295616876
  0.0531459683282307  0.0705034832297855  0.3574522188273832
  0.0528925632689621  0.0706362974168968  0.8571335310095023
  0.0528348132056919  0.3205392480335334  0.3569543130129631
  0.0547608605722445  0.3201314939641122  0.8579104277268570
  0.0533068705768827  0.5707270597067975  0.3573867720553778
  0.0529090641881993  0.5706282545908365  0.8567362956488580
  0.0532762743815240  0.8208479392879298  0.3574960768027253
  0.0529879951356591  0.8209025953055615  0.8572537207647244
  0.5530822769867356  0.0705413933885097  0.3574306188472818
  0.5529741796474426  0.0705577405999449  0.8570747299608712
  0.5527801854902918  0.3207394761727400  0.3569101318004044
  0.5521391908149695  0.3200743023822810  0.8581970794539941
  0.5519740446829076  0.5714779656250641  0.3548156964216886
  0.5532784580090677  0.5711213237584616  0.8577803744167269
  0.5531140494002145  0.8208695163412401  0.3574134487998393
  0.5530871257466430  0.8209222023358933  0.8574021363656001
  0.2001478758763469  0.1745247670144181  0.1532384974795136
  0.1999986474331976  0.1749242719417623  0.6528110559397788
  0.1989179871304003  0.4243545484693811  0.1511577778881730
  0.1999774879774066  0.4248210034958717  0.6528471610008495
  0.1999089396924774  0.6753515692113652  0.1528536514478560
  0.2000177853813838  0.6752464545933918  0.6532923703613633
  0.2002499090797443  0.9252029655939324  0.1534239841585716
  0.2000333133836918  0.9250464022785891  0.6531629243411246
  0.7001055856939331  0.1745614786972354  0.1534101604981331
  0.6999845151488913  0.1750044888072182  0.6530385964667076
  0.6997407494661445  0.4247578456620573  0.1521956276116043
  0.7004107090927647  0.4240161708092032  0.6533349292981399
  0.7002020403152756  0.6752033900700312  0.1530061629122059
  0.7004521518126552  0.6755307864635540  0.6540347470940375
  0.7002340109169367  0.9251643045103961  0.1533519211686425
  0.7001779235457164  0.9250360880088238  0.6532327058783096
  0.3001215531561172  0.0749177369701641  0.3470668131994330
  0.2998519002094895  0.0747864788459509  0.8466476063585375
  0.2996055328024312  0.3246076416465371  0.3462491878492671
  0.3000893125523945  0.3246779146751919  0.8467833862608032
  0.3013571077177204  0.5752198235340984  0.3470669379958053
  0.3000823518408282  0.5753309164786771  0.8474773844615342
  0.3001958253055861  0.8251265775797023  0.3472426120991088
  0.2997001226652074  0.8253422289797001  0.8466306768206806
  0.8000878196771168  0.0749031930945634  0.3470893336139156
  0.7999004520260584  0.0748990921488826  0.8468300634743784
  0.7999331252160360  0.3249092415880170  0.3467882279768233
  0.8004873369095407  0.3245847718031598  0.8475347972998080
  0.7999680131651203  0.5749614865709773  0.3473555082971416
  0.8002362858742984  0.5755070243456828  0.8478945796725483
  0.7999531656710204  0.8250338456428352  0.3469973877559198
  0.8004416899990616  0.8252160863950522  0.8473835626170896
  0.3000435334919231  0.0500089577088971  0.0968735185422460
  0.2998958624644246  0.0499420750468786  0.5967734248267291
  0.2994170908677063  0.2988542093328590  0.0958132679036936
  0.3000503411917279  0.2999651795108775  0.5966754358548485
  0.2998086296973241  0.5501167046347319  0.0965914590088843
  0.2994799817323113  0.5500541968446555  0.5976255191442803
  0.2998939400097811  0.8004319583098791  0.0969670916222967
  0.3000022727169380  0.8001666084408257  0.5969476156845275
  0.8000366787060571  0.0499882558534637  0.0969013712508087
  0.7999229731236497  0.0499818418936613  0.5968263190672758
  0.7997911978344590  0.2996149063162363  0.0968957762740956
  0.7999369983884108  0.3001686292662882  0.5972183083593734
  0.8002539495405827  0.5499997645981054  0.0972768021818453
  0.8001462695051060  0.5505488882981808  0.5978252860987538
  0.8003875839998358  0.8003472367820805  0.0974844982537846
  0.8001955962214282  0.8000701218111033  0.5970295281614142
  0.2001634798017662  0.1998499054930747  0.4030789981359177
  0.2001180292649849  0.1994695411162368  0.9028985686413336
  0.1988331496905857  0.4496209866477372  0.4024275234929249
  0.1999469536299259  0.4499418837006317  0.9025634533895044
  0.2001664958934910  0.6999105097103993  0.4031332557222811
  0.1997270717628794  0.7004717992214040  0.9028915695706559
  0.2003077409133169  0.9500830089141488  0.4035200273610968
  0.1999932627511001  0.9499972216304968  0.9031881229869256
  0.6999930886460675  0.1999590518214234  0.4031312370737865
  0.6998995593069850  0.1997314315448619  0.9032227319236554
  0.6989248221822066  0.4498512567069852  0.4018339475107382
  0.7000356971400166  0.4498958499039105  0.9022674592991606
  0.6994768112056775  0.7000925337295740  0.4027072610219946
  0.7010521495458306  0.7009243387731345  0.9047521740464219
  0.7001609561275544  0.9500708558725961  0.4033368808699791
  0.7001453684037457  0.9499885509058927  0.9032446051065222
 
  0.00000000E+00  0.00000000E+00  0.00000000E+00
  0.00000000E+00  0.00000000E+00  0.00000000E+00
  0.00000000E+00  0.00000000E+00  0.00000000E+00
  0.00000000E+00  0.00000000E+00  0.00000000E+00
  0.00000000E+00  0.00000000E+00  0.00000000E+00
  0.00000000E+00  0.00000000E+00  0.00000000E+00
  0.00000000E+00  0.00000000E+00  0.00000000E+00
  0.00000000E+00  0.00000000E+00  0.00000000E+00
  0.00000000E+00  0.00000000E+00  0.00000000E+00
  0.00000000E+00  0.00000000E+00  0.00000000E+00
  0.00000000E+00  0.00000000E+00  0.00000000E+00
  0.00000000E+00  0.00000000E+00  0.00000000E+00
  0.00000000E+00  0.00000000E+00  0.00000000E+00
  0.00000000E+00  0.00000000E+00  0.00000000E+00
  0.00000000E+00  0.00000000E+00  0.00000000E+00
  0.00000000E+00  0.00000000E+00  0.00000000E+00
  0.00000000E+00  0.00000000E+00  0.00000000E+00
  0.00000000E+00  0.00000000E+00  0.00000000E+00
  0.00000000E+00  0.00000000E+00  0.00000000E+00
  0.00000000E+00  0.00000000E+00  0.00000000E+00
  0.00000000E+00  0.00000000E+00  0.00000000E+00
  0.00000000E+00  0.00000000E+00  0.00000000E+00
  0.00000000E+00  0.00000000E+00  0.00000000E+00
  0.00000000E+00  0.00000000E+00  0.00000000E+00
  0.00000000E+00  0.00000000E+00  0.00000000E+00
  0.00000000E+00  0.00000000E+00  0.00000000E+00
  0.00000000E+00  0.00000000E+00  0.00000000E+00
  0.00000000E+00  0.00000000E+00  0.00000000E+00
  0.00000000E+00  0.00000000E+00  0.00000000E+00
  0.00000000E+00  0.00000000E+00  0.00000000E+00
  0.00000000E+00  0.00000000E+00  0.00000000E+00
  0.00000000E+00  0.00000000E+00  0.00000000E+00
  0.00000000E+00  0.00000000E+00  0.00000000E+00
  0.00000000E+00  0.00000000E+00  0.00000000E+00
  0.00000000E+00  0.00000000E+00  0.00000000E+00
  0.00000000E+00  0.00000000E+00  0.00000000E+00
  0.00000000E+00  0.00000000E+00  0.00000000E+00
  0.00000000E+00  0.00000000E+00  0.00000000E+00
  0.00000000E+00  0.00000000E+00  0.00000000E+00
  0.00000000E+00  0.00000000E+00  0.00000000E+00
  0.00000000E+00  0.00000000E+00  0.00000000E+00
  0.00000000E+00  0.00000000E+00  0.00000000E+00
  0.00000000E+00  0.00000000E+00  0.00000000E+00
  0.00000000E+00  0.00000000E+00  0.00000000E+00
  0.00000000E+00  0.00000000E+00  0.00000000E+00
  0.00000000E+00  0.00000000E+00  0.00000000E+00
  0.00000000E+00  0.00000000E+00  0.00000000E+00
  0.00000000E+00  0.00000000E+00  0.00000000E+00
  0.00000000E+00  0.00000000E+00  0.00000000E+00
  0.00000000E+00  0.00000000E+00  0.00000000E+00
  0.00000000E+00  0.00000000E+00  0.00000000E+00
  0.00000000E+00  0.00000000E+00  0.00000000E+00
  0.00000000E+00  0.00000000E+00  0.00000000E+00
  0.00000000E+00  0.00000000E+00  0.00000000E+00
  0.00000000E+00  0.00000000E+00  0.00000000E+00
  0.00000000E+00  0.00000000E+00  0.00000000E+00
  0.00000000E+00  0.00000000E+00  0.00000000E+00
  0.00000000E+00  0.00000000E+00  0.00000000E+00
  0.00000000E+00  0.00000000E+00  0.00000000E+00
  0.00000000E+00  0.00000000E+00  0.00000000E+00
  0.00000000E+00  0.00000000E+00  0.00000000E+00
  0.00000000E+00  0.00000000E+00  0.00000000E+00
  0.00000000E+00  0.00000000E+00  0.00000000E+00
  0.00000000E+00  0.00000000E+00  0.00000000E+00
  0.00000000E+00  0.00000000E+00  0.00000000E+00
  0.00000000E+00  0.00000000E+00  0.00000000E+00
  0.00000000E+00  0.00000000E+00  0.00000000E+00
  0.00000000E+00  0.00000000E+00  0.00000000E+00
  0.00000000E+00  0.00000000E+00  0.00000000E+00
  0.00000000E+00  0.00000000E+00  0.00000000E+00
  0.00000000E+00  0.00000000E+00  0.00000000E+00
  0.00000000E+00  0.00000000E+00  0.00000000E+00
  0.00000000E+00  0.00000000E+00  0.00000000E+00
  0.00000000E+00  0.00000000E+00  0.00000000E+00
  0.00000000E+00  0.00000000E+00  0.00000000E+00
  0.00000000E+00  0.00000000E+00  0.00000000E+00
  0.00000000E+00  0.00000000E+00  0.00000000E+00
  0.00000000E+00  0.00000000E+00  0.00000000E+00
  0.00000000E+00  0.00000000E+00  0.00000000E+00
  0.00000000E+00  0.00000000E+00  0.00000000E+00
  0.00000000E+00  0.00000000E+00  0.00000000E+00
  0.00000000E+00  0.00000000E+00  0.00000000E+00
  0.00000000E+00  0.00000000E+00  0.00000000E+00
  0.00000000E+00  0.00000000E+00  0.00000000E+00
  0.00000000E+00  0.00000000E+00  0.00000000E+00
  0.00000000E+00  0.00000000E+00  0.00000000E+00
  0.00000000E+00  0.00000000E+00  0.00000000E+00
  0.00000000E+00  0.00000000E+00  0.00000000E+00
  0.00000000E+00  0.00000000E+00  0.00000000E+00
  0.00000000E+00  0.00000000E+00  0.00000000E+00
  0.00000000E+00  0.00000000E+00  0.00000000E+00
  0.00000000E+00  0.00000000E+00  0.00000000E+00
  0.00000000E+00  0.00000000E+00  0.00000000E+00
  0.00000000E+00  0.00000000E+00  0.00000000E+00
  0.00000000E+00  0.00000000E+00  0.00000000E+00
  0.00000000E+00  0.00000000E+00  0.00000000E+00
  0.00000000E+00  0.00000000E+00  0.00000000E+00
  0.00000000E+00  0.00000000E+00  0.00000000E+00
  0.00000000E+00  0.00000000E+00  0.00000000E+00
  0.00000000E+00  0.00000000E+00  0.00000000E+00
  0.00000000E+00  0.00000000E+00  0.00000000E+00
  0.00000000E+00  0.00000000E+00  0.00000000E+00
  0.00000000E+00  0.00000000E+00  0.00000000E+00
  0.00000000E+00  0.00000000E+00  0.00000000E+00
  0.00000000E+00  0.00000000E+00  0.00000000E+00
  0.00000000E+00  0.00000000E+00  0.00000000E+00
  0.00000000E+00  0.00000000E+00  0.00000000E+00
  0.00000000E+00  0.00000000E+00  0.00000000E+00
  0.00000000E+00  0.00000000E+00  0.00000000E+00
  0.00000000E+00  0.00000000E+00  0.00000000E+00
  0.00000000E+00  0.00000000E+00  0.00000000E+00
  0.00000000E+00  0.00000000E+00  0.00000000E+00
  0.00000000E+00  0.00000000E+00  0.00000000E+00
  0.00000000E+00  0.00000000E+00  0.00000000E+00
  0.00000000E+00  0.00000000E+00  0.00000000E+00
  0.00000000E+00  0.00000000E+00  0.00000000E+00
  0.00000000E+00  0.00000000E+00  0.00000000E+00
  0.00000000E+00  0.00000000E+00  0.00000000E+00
  0.00000000E+00  0.00000000E+00  0.00000000E+00
  0.00000000E+00  0.00000000E+00  0.00000000E+00
  0.00000000E+00  0.00000000E+00  0.00000000E+00
  0.00000000E+00  0.00000000E+00  0.00000000E+00
  0.00000000E+00  0.00000000E+00  0.00000000E+00
  0.00000000E+00  0.00000000E+00  0.00000000E+00
  0.00000000E+00  0.00000000E+00  0.00000000E+00
  0.00000000E+00  0.00000000E+00  0.00000000E+00
  0.00000000E+00  0.00000000E+00  0.00000000E+00
  0.00000000E+00  0.00000000E+00  0.00000000E+00
  0.00000000E+00  0.00000000E+00  0.00000000E+00
  0.00000000E+00  0.00000000E+00  0.00000000E+00
  0.00000000E+00  0.00000000E+00  0.00000000E+00
  0.00000000E+00  0.00000000E+00  0.00000000E+00
  0.00000000E+00  0.00000000E+00  0.00000000E+00
  0.00000000E+00  0.00000000E+00  0.00000000E+00
  0.00000000E+00  0.00000000E+00  0.00000000E+00
  0.00000000E+00  0.00000000E+00  0.00000000E+00
  0.00000000E+00  0.00000000E+00  0.00000000E+00
  0.00000000E+00  0.00000000E+00  0.00000000E+00
  0.00000000E+00  0.00000000E+00  0.00000000E+00
  0.00000000E+00  0.00000000E+00  0.00000000E+00
  0.00000000E+00  0.00000000E+00  0.00000000E+00
  0.00000000E+00  0.00000000E+00  0.00000000E+00
  0.00000000E+00  0.00000000E+00  0.00000000E+00
  0.00000000E+00  0.00000000E+00  0.00000000E+00
  0.00000000E+00  0.00000000E+00  0.00000000E+00
  0.00000000E+00  0.00000000E+00  0.00000000E+00
  0.00000000E+00  0.00000000E+00  0.00000000E+00
  0.00000000E+00  0.00000000E+00  0.00000000E+00
  0.00000000E+00  0.00000000E+00  0.00000000E+00
  0.00000000E+00  0.00000000E+00  0.00000000E+00
  0.00000000E+00  0.00000000E+00  0.00000000E+00
  0.00000000E+00  0.00000000E+00  0.00000000E+00
  0.00000000E+00  0.00000000E+00  0.00000000E+00
  0.00000000E+00  0.00000000E+00  0.00000000E+00
  0.00000000E+00  0.00000000E+00  0.00000000E+00
  0.00000000E+00  0.00000000E+00  0.00000000E+00
  0.00000000E+00  0.00000000E+00  0.00000000E+00
  0.00000000E+00  0.00000000E+00  0.00000000E+00
  0.00000000E+00  0.00000000E+00  0.00000000E+00
  0.00000000E+00  0.00000000E+00  0.00000000E+00
  0.00000000E+00  0.00000000E+00  0.00000000E+00
  0.00000000E+00  0.00000000E+00  0.00000000E+00
  0.00000000E+00  0.00000000E+00  0.00000000E+00
  0.00000000E+00  0.00000000E+00  0.00000000E+00
  0.00000000E+00  0.00000000E+00  0.00000000E+00
  0.00000000E+00  0.00000000E+00  0.00000000E+00
  0.00000000E+00  0.00000000E+00  0.00000000E+00
  0.00000000E+00  0.00000000E+00  0.00000000E+00
  0.00000000E+00  0.00000000E+00  0.00000000E+00
  0.00000000E+00  0.00000000E+00  0.00000000E+00
  0.00000000E+00  0.00000000E+00  0.00000000E+00
  0.00000000E+00  0.00000000E+00  0.00000000E+00
  0.00000000E+00  0.00000000E+00  0.00000000E+00
  0.00000000E+00  0.00000000E+00  0.00000000E+00
  0.00000000E+00  0.00000000E+00  0.00000000E+00
  0.00000000E+00  0.00000000E+00  0.00000000E+00
  0.00000000E+00  0.00000000E+00  0.00000000E+00
  0.00000000E+00  0.00000000E+00  0.00000000E+00
  0.00000000E+00  0.00000000E+00  0.00000000E+00
  0.00000000E+00  0.00000000E+00  0.00000000E+00
  0.00000000E+00  0.00000000E+00  0.00000000E+00
  0.00000000E+00  0.00000000E+00  0.00000000E+00
  0.00000000E+00  0.00000000E+00  0.00000000E+00
  0.00000000E+00  0.00000000E+00  0.00000000E+00
  0.00000000E+00  0.00000000E+00  0.00000000E+00
  0.00000000E+00  0.00000000E+00  0.00000000E+00
  0.00000000E+00  0.00000000E+00  0.00000000E+00
  0.00000000E+00  0.00000000E+00  0.00000000E+00
  0.00000000E+00  0.00000000E+00  0.00000000E+00
  0.00000000E+00  0.00000000E+00  0.00000000E+00
  0.00000000E+00  0.00000000E+00  0.00000000E+00
  0.00000000E+00  0.00000000E+00  0.00000000E+00
